(set-info :smt-lib-version 2.6)
(set-logic UF)
(set-info :source |Benchmarks from the paper: "Extending Sledgehammer with SMT Solvers" by Jasmin Blanchette, Sascha Bohme, and Lawrence C. Paulson, CADE 2011.  Translated to SMT2 by Andrew Reynolds and Morgan Deters.|)
(set-info :category "industrial")
(set-info :status sat)
(declare-sort S1 0)
(declare-sort S2 0)
(declare-sort S3 0)
(declare-sort S4 0)
(declare-sort S5 0)
(declare-sort S6 0)
(declare-sort S7 0)
(declare-sort S8 0)
(declare-sort S9 0)
(declare-sort S10 0)
(declare-sort S11 0)
(declare-sort S12 0)
(declare-sort S13 0)
(declare-sort S14 0)
(declare-sort S15 0)
(declare-sort S16 0)
(declare-sort S17 0)
(declare-sort S18 0)
(declare-sort S19 0)
(declare-sort S20 0)
(declare-sort S21 0)
(declare-sort S22 0)
(declare-sort S23 0)
(declare-sort S24 0)
(declare-sort S25 0)
(declare-sort S26 0)
(declare-sort S27 0)
(declare-sort S28 0)
(declare-sort S29 0)
(declare-sort S30 0)
(declare-sort S31 0)
(declare-fun f1 () S1)
(declare-fun f2 () S1)
(declare-fun f3 (S2 S3) S4)
(declare-fun f4 (S5 S4) S2)
(declare-fun f5 () S5)
(declare-fun f6 (S6 S4) S4)
(declare-fun f7 (S7 S4) S6)
(declare-fun f8 () S7)
(declare-fun f9 (S8 S9) S6)
(declare-fun f10 () S8)
(declare-fun f11 (S10 S9) S9)
(declare-fun f12 () S10)
(declare-fun f13 () S9)
(declare-fun f14 () S9)
(declare-fun f15 () S4)
(declare-fun f16 () S4)
(declare-fun f17 () S3)
(declare-fun f18 (S11 S4) S3)
(declare-fun f19 (S12 S9) S11)
(declare-fun f20 () S12)
(declare-fun f21 () S4)
(declare-fun f22 () S4)
(declare-fun f23 () S4)
(declare-fun f24 (S13 S3) S3)
(declare-fun f25 (S14 S3) S13)
(declare-fun f26 () S14)
(declare-fun f27 () S11)
(declare-fun f28 (S3 S3) S1)
(declare-fun f29 (S3 S3) S1)
(declare-fun f30 () S4)
(declare-fun f31 () S3)
(declare-fun f32 () S4)
(declare-fun f33 () S3)
(declare-fun f34 (S4 S4) S1)
(declare-fun f35 (S16 S17) S3)
(declare-fun f36 () S16)
(declare-fun f37 (S18 S3) S17)
(declare-fun f38 (S19 S17) S18)
(declare-fun f39 () S19)
(declare-fun f40 (S20 S17) S17)
(declare-fun f41 (S21 S15) S20)
(declare-fun f42 () S21)
(declare-fun f43 () S15)
(declare-fun f44 () S17)
(declare-fun f45 (S22 S23) S3)
(declare-fun f46 () S22)
(declare-fun f47 (S23 S3) S23)
(declare-fun f48 (S17 S23) S23)
(declare-fun f49 () S17)
(declare-fun f50 () S23)
(declare-fun f51 (S24 S25) S3)
(declare-fun f52 () S24)
(declare-fun f53 (S25 S3) S25)
(declare-fun f54 (S3 S25) S25)
(declare-fun f55 () S3)
(declare-fun f56 () S25)
(declare-fun f57 (S15 S15) S1)
(declare-fun f58 (S15 S15) S1)
(declare-fun f59 (S26 S3) S15)
(declare-fun f60 (S27 S15) S26)
(declare-fun f61 () S27)
(declare-fun f62 () S14)
(declare-fun f63 (S17 S17) S1)
(declare-fun f64 (S17 S17) S1)
(declare-fun f65 () S15)
(declare-fun f66 (S28 S15) S15)
(declare-fun f67 (S29 S15) S28)
(declare-fun f68 () S29)
(declare-fun f69 () S14)
(declare-fun f70 (S30 S17) S20)
(declare-fun f71 () S30)
(declare-fun f72 (S31 S15) S16)
(declare-fun f73 () S31)
(assert (not (= f1 f2)))
(assert (let ((?v_0 (f6 (f9 f10 (f11 f12 f13)) (f6 (f9 f10 f14) f15)))) (let ((?v_1 (f4 f5 ?v_0)) (?v_2 (f18 (f19 f20 f13) f21)) (?v_3 (f25 f26 f17))) (not (= (f3 (f4 f5 (f6 (f7 f8 ?v_0) f16)) f17) (f6 (f7 f8 (f6 (f7 f8 (f3 ?v_1 ?v_2)) f22)) (f6 (f7 f8 (f6 (f7 f8 f23) (f3 ?v_1 (f24 ?v_3 ?v_2)))) (f3 (f4 f5 f16) (f24 ?v_3 (f18 f27 f22))))))))))
(assert (= (f28 (f18 (f19 f20 f13) f21) f17) f1))
(assert (= (f29 (f18 f27 f22) f17) f1))
(assert (= (f18 f27 f30) f31))
(assert (not (= f32 f15)))
(assert (= (f18 f27 f21) f17))
(assert (not (= f22 f15)))
(assert (not (= f21 f15)))
(assert (= (f3 (f4 f5 f16) (f18 f27 f22)) (f6 (f7 f8 f22) f23)))
(assert (not (= f17 f33)))
(assert (= (f29 (f18 f27 f22) f17) f1))
(assert (forall ((?v0 S9)) (= (f28 (f18 (f19 f20 ?v0) f21) f17) f1)))
(assert (= f21 (f6 (f7 f8 (f3 (f4 f5 (f6 (f9 f10 (f11 f12 f13)) (f6 (f9 f10 f14) f15))) (f18 (f19 f20 f13) f21))) f22)))
(assert (= (f28 (f18 (f19 f20 f13) f21) f17) f1))
(assert (not (= (f18 f27 f22) f33)))
(assert (not (= (f18 (f19 f20 f13) f21) f33)))
(assert (=> (forall ((?v0 S4)) (=> (= (f3 (f4 f5 f16) (f18 f27 f22)) (f6 (f7 f8 f22) ?v0)) false)) false))
(assert (= f32 (f6 (f7 f8 (f6 (f9 f10 (f11 f12 f13)) (f6 (f9 f10 f14) f15))) f16)))
(assert (=> (forall ((?v0 S4)) (=> (= f21 (f6 (f7 f8 (f3 (f4 f5 (f6 (f9 f10 (f11 f12 f13)) (f6 (f9 f10 f14) f15))) (f18 (f19 f20 f13) f21))) ?v0)) false)) false))
(assert (= (f34 (f3 (f4 f5 (f6 (f9 f10 (f11 f12 f13)) (f6 (f9 f10 f14) f15))) (f18 (f19 f20 f13) f21)) f21) f1))
(assert (=> (forall ((?v0 S4)) (=> (= f32 (f6 (f7 f8 (f6 (f9 f10 (f11 f12 f13)) (f6 (f9 f10 f14) f15))) ?v0)) false)) false))
(assert (forall ((?v0 S9) (?v1 S3)) (= (f18 f27 (f3 (f4 f5 (f6 (f9 f10 ?v0) (f6 (f9 f10 f14) f15))) ?v1)) ?v1)))
(assert (forall ((?v0 S15) (?v1 S3)) (= (f35 f36 (f37 (f38 f39 (f40 (f41 f42 ?v0) (f40 (f41 f42 f43) f44))) ?v1)) ?v1)))
(assert (forall ((?v0 S17) (?v1 S3)) (= (f45 f46 (f47 (f48 ?v0 (f48 f49 f50)) ?v1)) ?v1)))
(assert (forall ((?v0 S3) (?v1 S3)) (= (f51 f52 (f53 (f54 ?v0 (f54 f55 f56)) ?v1)) ?v1)))
(assert (forall ((?v0 S15) (?v1 S3) (?v2 S3)) (let ((?v_0 (f60 f61 ?v0))) (=> (= (f57 f43 ?v0) f1) (= (= (f58 (f59 ?v_0 ?v1) (f59 ?v_0 ?v2)) f1) (= (f28 ?v1 ?v2) f1))))))
(assert (forall ((?v0 S3) (?v1 S3) (?v2 S3)) (let ((?v_0 (f25 f62 ?v0))) (=> (= (f29 f55 ?v0) f1) (= (= (f28 (f24 ?v_0 ?v1) (f24 ?v_0 ?v2)) f1) (= (f28 ?v1 ?v2) f1))))))
(assert (forall ((?v0 S17) (?v1 S3) (?v2 S3)) (let ((?v_0 (f38 f39 ?v0))) (=> (= (f63 f49 ?v0) f1) (= (= (f64 (f37 ?v_0 ?v1) (f37 ?v_0 ?v2)) f1) (= (f28 ?v1 ?v2) f1))))))
(assert (forall ((?v0 S15) (?v1 S3) (?v2 S3)) (let ((?v_0 (f60 f61 ?v0))) (=> (= (f57 f43 ?v0) f1) (=> (= (f58 (f59 ?v_0 ?v1) (f59 ?v_0 ?v2)) f1) (= (f28 ?v1 ?v2) f1))))))
(assert (forall ((?v0 S3) (?v1 S3) (?v2 S3)) (let ((?v_0 (f25 f62 ?v0))) (=> (= (f29 f55 ?v0) f1) (=> (= (f28 (f24 ?v_0 ?v1) (f24 ?v_0 ?v2)) f1) (= (f28 ?v1 ?v2) f1))))))
(assert (forall ((?v0 S17) (?v1 S3) (?v2 S3)) (let ((?v_0 (f38 f39 ?v0))) (=> (= (f63 f49 ?v0) f1) (=> (= (f64 (f37 ?v_0 ?v1) (f37 ?v_0 ?v2)) f1) (= (f28 ?v1 ?v2) f1))))))
(assert (forall ((?v0 S3) (?v1 S3) (?v2 S15)) (let ((?v_0 (f60 f61 ?v2))) (=> (= (f28 ?v0 ?v1) f1) (=> (= (f58 f65 ?v2) f1) (=> (= (f58 ?v2 f43) f1) (= (f58 (f59 ?v_0 ?v1) (f59 ?v_0 ?v0)) f1)))))))
(assert (forall ((?v0 S3) (?v1 S3) (?v2 S3)) (let ((?v_0 (f25 f62 ?v2))) (=> (= (f28 ?v0 ?v1) f1) (=> (= (f28 f33 ?v2) f1) (=> (= (f28 ?v2 f55) f1) (= (f28 (f24 ?v_0 ?v1) (f24 ?v_0 ?v0)) f1)))))))
(assert (forall ((?v0 S3) (?v1 S3) (?v2 S17)) (let ((?v_0 (f38 f39 ?v2))) (=> (= (f28 ?v0 ?v1) f1) (=> (= (f64 f44 ?v2) f1) (=> (= (f64 ?v2 f49) f1) (= (f64 (f37 ?v_0 ?v1) (f37 ?v_0 ?v0)) f1)))))))
(assert (forall ((?v0 S3) (?v1 S3) (?v2 S15)) (let ((?v_0 (f60 f61 ?v2))) (=> (= (f29 ?v0 ?v1) f1) (=> (= (f57 f65 ?v2) f1) (=> (= (f57 ?v2 f43) f1) (= (f57 (f59 ?v_0 ?v1) (f59 ?v_0 ?v0)) f1)))))))
(assert (forall ((?v0 S3) (?v1 S3) (?v2 S3)) (let ((?v_0 (f25 f62 ?v2))) (=> (= (f29 ?v0 ?v1) f1) (=> (= (f29 f33 ?v2) f1) (=> (= (f29 ?v2 f55) f1) (= (f29 (f24 ?v_0 ?v1) (f24 ?v_0 ?v0)) f1)))))))
(assert (forall ((?v0 S3) (?v1 S3) (?v2 S17)) (let ((?v_0 (f38 f39 ?v2))) (=> (= (f29 ?v0 ?v1) f1) (=> (= (f63 f44 ?v2) f1) (=> (= (f63 ?v2 f49) f1) (= (f63 (f37 ?v_0 ?v1) (f37 ?v_0 ?v0)) f1)))))))
(assert (forall ((?v0 S15) (?v1 S15) (?v2 S3)) (=> (= (f57 ?v0 ?v1) f1) (=> (= (f58 f65 ?v0) f1) (=> (= (f29 f33 ?v2) f1) (= (f57 (f59 (f60 f61 ?v0) ?v2) (f59 (f60 f61 ?v1) ?v2)) f1))))))
(assert (forall ((?v0 S3) (?v1 S3) (?v2 S3)) (=> (= (f29 ?v0 ?v1) f1) (=> (= (f28 f33 ?v0) f1) (=> (= (f29 f33 ?v2) f1) (= (f29 (f24 (f25 f62 ?v0) ?v2) (f24 (f25 f62 ?v1) ?v2)) f1))))))
(assert (forall ((?v0 S17) (?v1 S17) (?v2 S3)) (=> (= (f63 ?v0 ?v1) f1) (=> (= (f64 f44 ?v0) f1) (=> (= (f29 f33 ?v2) f1) (= (f63 (f37 (f38 f39 ?v0) ?v2) (f37 (f38 f39 ?v1) ?v2)) f1))))))
(assert (forall ((?v0 S15) (?v1 S3)) (let ((?v_0 (f59 (f60 f61 ?v0) ?v1))) (=> (= (f57 f65 ?v0) f1) (=> (= (f57 ?v0 f43) f1) (= (f57 (f66 (f67 f68 ?v0) ?v_0) ?v_0) f1))))))
(assert (forall ((?v0 S3) (?v1 S3)) (let ((?v_0 (f24 (f25 f62 ?v0) ?v1))) (=> (= (f29 f33 ?v0) f1) (=> (= (f29 ?v0 f55) f1) (= (f29 (f24 (f25 f69 ?v0) ?v_0) ?v_0) f1))))))
(assert (forall ((?v0 S17) (?v1 S3)) (let ((?v_0 (f37 (f38 f39 ?v0) ?v1))) (=> (= (f63 f44 ?v0) f1) (=> (= (f63 ?v0 f49) f1) (= (f63 (f40 (f70 f71 ?v0) ?v_0) ?v_0) f1))))))
(assert (forall ((?v0 S4) (?v1 S9)) (=> (not (= ?v0 f15)) (= (f28 (f18 (f19 f20 ?v1) ?v0) (f18 f27 ?v0)) f1))))
(assert (forall ((?v0 S17) (?v1 S15)) (=> (not (= ?v0 f44)) (= (f28 (f35 (f72 f73 ?v1) ?v0) (f35 f36 ?v0)) f1))))
(assert (= (f34 f22 (f3 (f4 f5 f16) (f18 f27 f22))) f1))
(assert (forall ((?v0 S3) (?v1 S3) (?v2 S15)) (let ((?v_0 (f60 f61 ?v2))) (=> (= (f28 ?v0 ?v1) f1) (=> (= (f58 f43 ?v2) f1) (= (f58 (f59 ?v_0 ?v0) (f59 ?v_0 ?v1)) f1))))))
(assert (forall ((?v0 S3) (?v1 S3) (?v2 S3)) (let ((?v_0 (f25 f62 ?v2))) (=> (= (f28 ?v0 ?v1) f1) (=> (= (f28 f55 ?v2) f1) (= (f28 (f24 ?v_0 ?v0) (f24 ?v_0 ?v1)) f1))))))
(assert (forall ((?v0 S3) (?v1 S3) (?v2 S17)) (let ((?v_0 (f38 f39 ?v2))) (=> (= (f28 ?v0 ?v1) f1) (=> (= (f64 f49 ?v2) f1) (= (f64 (f37 ?v_0 ?v0) (f37 ?v_0 ?v1)) f1))))))
(assert (not (= f31 f33)))
(assert (=> (= f32 f15) (= (f34 f21 (f3 (f4 f5 f32) f17)) f1)))
(assert (= (f34 (f6 (f9 f10 (f11 f12 f13)) (f6 (f9 f10 f14) f15)) f32) f1))
(assert (=> (= (f18 f27 f22) f33) (= (f34 f21 (f3 (f4 f5 f32) f17)) f1)))
(check-sat)
(exit)
